c Generated map
c Size: 8 * 8, weights in range: 1 to 10, walls: True, with ratio 0.05
c dim 8 of 9
c
p sp 64 100
c graph contains 64 nodes and 100 arcs
c
a 1 9 9
a 9 1 9
a 1 2 7
a 2 1 7
a 2 10 3
a 10 2 3
a 2 3 10
a 3 2 10
a 3 11 5
a 11 3 5
a 3 4 5
a 4 3 5
a 4 12 2
a 12 4 2
a 4 5 1
a 5 4 1
a 5 13 8
a 13 5 8
a 5 6 6
a 6 5 6
a 6 7 4
a 7 6 4
a 7 15 9
a 15 7 9
a 7 8 1
a 8 7 1
a 8 16 2
a 16 8 2
a 9 17 4
a 17 9 4
a 9 10 1
a 10 9 1
a 10 18 6
a 18 10 6
a 10 11 2
a 11 10 2
a 11 19 9
a 19 11 9
a 11 12 3
a 12 11 3
a 12 20 6
a 20 12 6
a 12 13 5
a 13 12 5
a 13 21 2
a 21 13 2
a 15 23 4
a 23 15 4
a 15 16 6
a 16 15 6
a 16 24 4
a 24 16 4
a 17 25 7
a 25 17 7
a 17 18 10
a 18 17 10
a 18 26 5
a 26 18 5
a 18 19 10
a 19 18 10
a 19 27 8
a 27 19 8
a 19 20 3
a 20 19 3
a 20 28 3
a 28 20 3
a 20 21 3
a 21 20 3
a 21 29 6
a 29 21 6
a 21 22 7
a 22 21 7
a 22 30 6
a 30 22 6
a 22 23 5
a 23 22 5
a 23 31 3
a 31 23 3
a 23 24 3
a 24 23 3
a 24 32 6
a 32 24 6
a 25 33 1
a 33 25 1
a 25 26 3
a 26 25 3
a 26 34 10
a 34 26 10
a 26 27 2
a 27 26 2
a 27 35 10
a 35 27 10
a 27 28 10
a 28 27 10
a 28 36 8
a 36 28 8
a 28 29 5
a 29 28 5
a 29 37 2
a 37 29 2
a 29 30 5
a 30 29 5
a 30 38 2
a 38 30 2
a 30 31 10
a 31 30 10
a 31 39 5
a 39 31 5
a 31 32 10
a 32 31 10
a 32 40 2
a 40 32 2
a 33 41 6
a 41 33 6
a 33 34 6
a 34 33 6
a 34 42 4
a 42 34 4
a 34 35 1
a 35 34 1
a 35 43 2
a 43 35 2
a 35 36 1
a 36 35 1
a 36 44 3
a 44 36 3
a 36 37 8
a 37 36 8
a 37 45 5
a 45 37 5
a 37 38 1
a 38 37 1
a 38 39 9
a 39 38 9
a 39 47 9
a 47 39 9
a 39 40 2
a 40 39 2
a 40 48 5
a 48 40 5
a 41 49 1
a 49 41 1
a 41 42 6
a 42 41 6
a 42 50 8
a 50 42 8
a 42 43 9
a 43 42 9
a 43 51 10
a 51 43 10
a 43 44 9
a 44 43 9
a 44 52 5
a 52 44 5
a 44 45 3
a 45 44 3
a 45 53 7
a 53 45 7
a 47 48 1
a 48 47 1
a 48 56 8
a 56 48 8
a 49 57 3
a 57 49 3
a 49 50 2
a 50 49 2
a 50 58 5
a 58 50 5
a 50 51 7
a 51 50 7
a 51 59 2
a 59 51 2
a 51 52 5
a 52 51 5
a 52 60 7
a 60 52 7
a 52 53 4
a 53 52 4
a 53 61 10
a 61 53 10
a 53 54 8
a 54 53 8
a 54 62 9
a 62 54 9
a 56 64 3
a 64 56 3
a 57 58 6
a 58 57 6
a 58 59 8
a 59 58 8
a 59 60 10
a 60 59 10
a 60 61 3
a 61 60 3
a 61 62 10
a 62 61 10
a 62 63 9
a 63 62 9
a 63 64 2
a 64 63 2
